objective value:                                    0
r[6,0,9]                             9.55075491400067 	(obj:0)
r[6,1,9]                             39.1080487617318 	(obj:0)
r[6,0,10]                            5.59952835651953 	(obj:0)
r[6,1,10]                            7.46603780869271 	(obj:0)
r[7,0,0]                                           75 	(obj:0)
r[7,1,0]                                          100 	(obj:0)
r[7,0,1]                                     65.48994 	(obj:0)
r[7,1,1]                                     91.19944 	(obj:0)
r[7,0,2]                                56.3701901292 	(obj:0)
r[7,1,2]                                 82.992037744 	(obj:0)
r[7,0,3]                             47.6308622333113 	(obj:0)
r[7,1,3]                             75.3378144000544 	(obj:0)
r[7,0,4]                             39.2616591916229 	(obj:0)
r[7,1,4]                             68.1994857094907 	(obj:0)
r[7,0,5]                             31.2519729218734 	(obj:0)
r[7,1,5]                             61.5422803726711 	(obj:0)
r[7,0,6]                             23.5909711657404 	(obj:0)
r[7,1,6]                              55.333770675553 	(obj:0)
r[7,0,7]                             16.2676741133393 	(obj:0)
r[7,1,7]                             49.5437145320208 	(obj:0)
r[7,0,8]                             13.8685818339969 	(obj:0)
r[7,1,8]                             44.1439081725626 	(obj:0)
r[7,0,9]                             11.4839132168709 	(obj:0)
r[7,1,9]                             39.1080487617318 	(obj:0)
r[7,0,10]                            6.98225388513041 	(obj:0)
r[7,1,10]                            9.30967184684055 	(obj:0)
r[8,0,0]                                           75 	(obj:0)
r[8,1,0]                                          100 	(obj:0)
r[8,0,1]                                     65.48994 	(obj:0)
r[8,1,1]                                     91.19944 	(obj:0)
r[8,0,2]                                56.3701901292 	(obj:0)
r[8,1,2]                                 82.992037744 	(obj:0)
r[8,0,3]                             47.6308622333113 	(obj:0)
r[8,1,3]                             75.3378144000544 	(obj:0)
r[8,0,4]                             39.2616591916229 	(obj:0)
r[8,1,4]                             68.1994857094907 	(obj:0)
r[8,0,5]                             35.8495329218734 	(obj:0)
r[8,1,5]                             61.5422803726711 	(obj:0)
r[8,0,6]                             32.4849509857404 	(obj:0)
r[8,1,6]                              55.333770675553 	(obj:0)
r[8,0,7]                             29.1766582551293 	(obj:0)
r[8,1,7]                             49.5437145320208 	(obj:0)
r[8,0,8]                             22.0856227890963 	(obj:0)
r[8,1,8]                             44.1439081725626 	(obj:0)
r[8,0,9]                             14.6671866212513 	(obj:0)
r[8,1,9]                             39.1080487617318 	(obj:0)
r[8,0,10]                            9.25914626080892 	(obj:0)
r[8,1,10]                            12.3455283477452 	(obj:0)
r[9,0,0]                                           75 	(obj:0)
r[9,1,0]                                          100 	(obj:0)
r[9,0,1]                                     65.48994 	(obj:0)
r[9,1,1]                                     91.19944 	(obj:0)
r[9,0,2]                                56.3701901292 	(obj:0)
r[9,1,2]                                 82.992037744 	(obj:0)
r[9,0,3]                              49.518395155015 	(obj:0)
r[9,1,3]                             75.3378144000544 	(obj:0)
r[9,0,4]                              45.623118706955 	(obj:0)
r[9,1,4]                             68.1994857094907 	(obj:0)
r[9,0,5]                             41.7943168389512 	(obj:0)
r[9,1,5]                             61.5422803726711 	(obj:0)
r[9,0,6]                             38.0403515562496 	(obj:0)
r[9,1,6]                              55.333770675553 	(obj:0)
r[9,0,7]                             34.3681800882701 	(obj:0)
r[9,1,7]                             49.5437145320208 	(obj:0)
r[9,0,8]                             30.7835046675698 	(obj:0)
r[9,1,8]                             44.1439081725626 	(obj:0)
r[9,0,9]                             22.6933486048448 	(obj:0)
r[9,1,9]                             39.1080487617318 	(obj:0)
r[9,0,10]                                          15 	(obj:0)
r[9,1,10]                                          20 	(obj:0)
r[10,0,0]                                          34 	(obj:0)
r[10,0,1]                                    30.70259 	(obj:0)
r[10,0,2]                                 27.42166705 	(obj:0)
r[10,0,3]                              24.15714871475 	(obj:0)
r[10,0,4]                            20.9089529711762 	(obj:0)
r[10,0,5]                            17.6769982063204 	(obj:0)
r[10,0,6]                            14.4612032152888 	(obj:0)
r[10,0,7]                             13.236742993775 	(obj:0)
r[10,0,8]                            13.1705592788061 	(obj:0)
r[10,0,9]                            9.97729648241206 	(obj:0)
r[10,0,10]                                        6.8 	(obj:0)
r[11,0,0]                                          34 	(obj:0)
r[11,0,1]                                    30.70259 	(obj:0)
r[11,0,2]                                 27.42166705 	(obj:0)
r[11,0,3]                              24.15714871475 	(obj:0)
r[11,0,4]                            20.9089529711762 	(obj:0)
r[11,0,5]                            17.6769982063204 	(obj:0)
r[11,0,6]                            14.4612032152888 	(obj:0)
r[11,0,7]                            11.2614871992123 	(obj:0)
r[11,0,8]                            8.07776976321625 	(obj:0)
r[11,0,9]                            8.03738091440017 	(obj:0)
r[11,0,10]                           5.47785568107206 	(obj:0)
r[12,0,0]                                          34 	(obj:0)
r[12,0,1]                                    30.70259 	(obj:0)
r[12,0,2]                                 27.42166705 	(obj:0)
r[12,0,3]                              24.15714871475 	(obj:0)
r[12,0,4]                            20.9089529711762 	(obj:0)
r[12,0,5]                            17.6769982063204 	(obj:0)
r[12,0,6]                            14.4612032152888 	(obj:0)
r[12,0,7]                            11.2614871992123 	(obj:0)
r[12,0,8]                            10.0274336506654 	(obj:0)
r[12,0,9]                            9.97729648241206 	(obj:0)
r[12,0,10]                                        6.8 	(obj:0)
r[13,0,0]                                          34 	(obj:0)
r[13,0,1]                                    30.70259 	(obj:0)
r[13,0,2]                                 27.42166705 	(obj:0)
r[13,0,3]                              24.15714871475 	(obj:0)
r[13,0,4]                            20.9089529711762 	(obj:0)
r[13,0,5]                            17.6769982063204 	(obj:0)
r[13,0,6]                            14.4612032152888 	(obj:0)
r[13,0,7]                            11.2614871992123 	(obj:0)
r[13,0,8]                            8.07776976321625 	(obj:0)
r[13,0,9]                            4.90997091440017 	(obj:0)
r[13,0,10]                           3.34637767623495 	(obj:0)
r[14,0,0]                                          34 	(obj:0)
r[14,0,1]                                    30.70259 	(obj:0)
r[14,0,2]                                 27.42166705 	(obj:0)
r[14,0,3]                              24.15714871475 	(obj:0)
r[14,0,4]                            20.9089529711762 	(obj:0)
r[14,0,5]                            17.6769982063204 	(obj:0)
r[14,0,6]                            14.4612032152888 	(obj:0)
r[14,0,7]                            11.2614871992123 	(obj:0)
r[14,0,8]                            8.07776976321625 	(obj:0)
r[14,0,9]                            4.90997091440017 	(obj:0)
r[15,0,0]                                          34 	(obj:0)
r[15,0,1]                                    30.70259 	(obj:0)
r[15,0,2]                                 27.42166705 	(obj:0)
r[15,0,3]                              24.15714871475 	(obj:0)
r[15,0,4]                            20.9089529711762 	(obj:0)
r[15,0,5]                            17.6769982063204 	(obj:0)
r[15,0,6]                            14.4612032152888 	(obj:0)
r[15,0,7]                            11.2614871992123 	(obj:0)
r[15,0,8]                            8.07776976321625 	(obj:0)
r[15,0,9]                            4.90997091440017 	(obj:0)
r[16,0,0]                                          34 	(obj:0)
r[16,0,1]                                    30.70259 	(obj:0)
r[16,0,2]                                 27.42166705 	(obj:0)
r[16,0,3]                              24.15714871475 	(obj:0)
r[16,0,4]                            20.9089529711762 	(obj:0)
r[16,0,5]                            17.6769982063204 	(obj:0)
r[16,0,6]                            14.4612032152888 	(obj:0)
r[16,0,7]                            11.2614871992123 	(obj:0)
r[16,0,8]                            8.07776976321625 	(obj:0)
r[16,0,9]                            4.90997091440017 	(obj:0)
r[17,0,0]                                          34 	(obj:0)
r[17,0,1]                                    30.70259 	(obj:0)
r[17,0,2]                                 27.42166705 	(obj:0)
r[17,0,3]                              24.15714871475 	(obj:0)
r[17,0,4]                            20.9089529711762 	(obj:0)
r[17,0,5]                            17.6769982063204 	(obj:0)
r[17,0,6]                            14.4612032152888 	(obj:0)
r[17,0,7]                            11.2614871992123 	(obj:0)
r[17,0,8]                            8.07776976321625 	(obj:0)
r[17,0,9]                            4.90997091440017 	(obj:0)
r[18,0,0]                                          34 	(obj:0)
r[18,0,1]                                    30.70259 	(obj:0)
r[18,0,2]                                 27.42166705 	(obj:0)
r[18,0,3]                              24.15714871475 	(obj:0)
r[18,0,4]                            20.9089529711762 	(obj:0)
r[18,0,5]                            17.6769982063204 	(obj:0)
r[18,0,6]                            14.4612032152888 	(obj:0)
r[18,0,7]                            11.2614871992123 	(obj:0)
r[18,0,8]                            10.0274336506654 	(obj:0)
r[18,0,9]                            9.97729648241206 	(obj:0)
r[18,0,10]                                        6.8 	(obj:0)
r[19,0,0]                                          34 	(obj:0)
r[19,0,1]                                    30.70259 	(obj:0)
r[19,0,2]                                 27.42166705 	(obj:0)
r[19,0,3]                              24.15714871475 	(obj:0)
r[19,0,4]                            20.9089529711762 	(obj:0)
r[19,0,5]                            17.6769982063204 	(obj:0)
r[19,0,6]                            14.4612032152888 	(obj:0)
r[19,0,7]                            11.2614871992123 	(obj:0)
r[19,0,8]                            10.0274336506654 	(obj:0)
r[19,0,9]                            9.97729648241206 	(obj:0)
r[19,0,10]                                        6.8 	(obj:0)
y[0,1]                                           1.72 	(obj:0)
y[0,2]                                           1.72 	(obj:0)
y[0,3]                                           1.72 	(obj:0)
y[0,4]                                           1.72 	(obj:0)
y[0,5]                                           1.72 	(obj:0)
y[0,6]                                           1.72 	(obj:0)
y[0,7]                                           1.72 	(obj:0)
y[0,8]                               1.21719034178105 	(obj:0)
y[0,9]                              0.741049907431194 	(obj:0)
y[0,10]                             0.388800612469388 	(obj:0)
y[1,1]                                           1.72 	(obj:0)
y[1,2]                                           1.72 	(obj:0)
y[1,3]                                           1.72 	(obj:0)
y[1,4]                                           1.72 	(obj:0)
y[1,5]                                           1.72 	(obj:0)
y[1,6]                                           1.72 	(obj:0)
y[1,7]                                           1.72 	(obj:0)
y[1,8]                               1.21719034178105 	(obj:0)
y[1,9]                              0.741049907431194 	(obj:0)
y[1,10]                             0.388800612469388 	(obj:0)
y[2,1]                                           1.72 	(obj:0)
y[2,2]                                           1.72 	(obj:0)
y[2,3]                                           1.72 	(obj:0)
y[2,4]                                           1.72 	(obj:0)
y[2,5]                                           1.72 	(obj:0)
y[2,6]                                           1.72 	(obj:0)
y[2,7]                                           1.72 	(obj:0)
y[2,8]                               1.21719034178105 	(obj:0)
y[2,9]                              0.741049907431194 	(obj:0)
y[2,10]                             0.388800612469388 	(obj:0)
y[3,1]                                           1.72 	(obj:0)
y[3,2]                                           1.72 	(obj:0)
y[3,3]                                           1.72 	(obj:0)
y[3,4]                                           1.72 	(obj:0)
y[3,5]                                           1.72 	(obj:0)
y[3,6]                                           1.72 	(obj:0)
y[3,7]                                           1.72 	(obj:0)
y[3,8]                               1.21719034178105 	(obj:0)
y[3,9]                              0.741049907431194 	(obj:0)
y[3,10]                             0.388800612469388 	(obj:0)
y[4,1]                                           1.72 	(obj:0)
y[4,2]                                           1.72 	(obj:0)
y[4,3]                                           1.72 	(obj:0)
y[4,4]                                           1.72 	(obj:0)
y[4,5]                               1.66879467160469 	(obj:0)
y[4,7]                               1.07855627883903 	(obj:0)
y[4,8]                                           1.72 	(obj:0)
y[4,9]                               1.10069337243827 	(obj:0)
y[4,10]                             0.646041935916631 	(obj:0)
y[5,1]                                           1.72 	(obj:0)
y[5,2]                              0.289999999999999 	(obj:0)
y[5,3]                                           1.72 	(obj:0)
y[5,5]                                           1.72 	(obj:0)
y[5,6]                                           1.72 	(obj:0)
y[5,7]                                           1.72 	(obj:0)
y[5,8]                                           1.72 	(obj:0)
y[5,9]                               1.10069337243827 	(obj:0)
y[5,10]                             0.646041935916631 	(obj:0)
y[6,1]                              0.209999999999999 	(obj:0)
y[6,2]                                           1.72 	(obj:0)
y[6,3]                                           1.72 	(obj:0)
y[6,6]                                           1.53 	(obj:0)
y[6,7]                               1.14144372116097 	(obj:0)
y[6,8]                               1.71225444828795 	(obj:0)
y[6,9]                               1.09515323013874 	(obj:0)
y[6,10]                             0.642079251547573 	(obj:0)
y[7,1]                                           1.72 	(obj:0)
y[7,5]                                           1.72 	(obj:0)
y[7,6]                                           1.72 	(obj:0)
y[7,7]                                           1.72 	(obj:0)
y[7,10]                             0.800631778828287 	(obj:0)
y[8,8]                               1.43898418458786 	(obj:0)
y[8,9]                               1.68183739923681 	(obj:0)
y[8,10]                              1.06171543790609 	(obj:0)
y[9,9]                                           1.72 	(obj:0)
y[9,10]                                          1.72 	(obj:0)
y[10,3]                                          1.17 	(obj:0)
y[10,9]                                          1.17 	(obj:0)
y[10,10]                                         1.17 	(obj:0)
y[11,3]                                          1.17 	(obj:0)
y[11,10]                            0.942513403949163 	(obj:0)
y[12,3]                                          1.17 	(obj:0)
y[12,10]                                         1.17 	(obj:0)
y[13,3]                                          1.17 	(obj:0)
y[13,8]                                          1.17 	(obj:0)
y[13,9]                             0.347422996023117 	(obj:0)
y[13,10]                            0.575773806058072 	(obj:0)
y[14,3]                                          1.17 	(obj:0)
y[15,3]                                          1.17 	(obj:0)
y[15,4]                                          1.17 	(obj:0)
y[16,3]                                          1.17 	(obj:0)
y[16,4]                                          1.17 	(obj:0)
y[16,6]                                          1.17 	(obj:0)
y[17,3]                                          1.17 	(obj:0)
y[17,4]                                          1.17 	(obj:0)
y[17,5]                             0.461205328395308 	(obj:0)
y[18,3]                                          1.17 	(obj:0)
y[18,10]                                         1.17 	(obj:0)
y[19,3]                                          1.17 	(obj:0)
y[19,4]                                          1.17 	(obj:0)
y[19,10]                                         1.17 	(obj:0)
r[0,0,0]                                           75 	(obj:0)
r[0,1,0]                                          100 	(obj:0)
r[0,0,1]                                     65.48994 	(obj:0)
r[0,1,1]                                     91.19944 	(obj:0)
r[0,0,2]                                56.3701901292 	(obj:0)
r[0,1,2]                                 82.992037744 	(obj:0)
r[0,0,3]                             47.6308622333113 	(obj:0)
r[0,1,3]                             75.3378144000544 	(obj:0)
r[0,0,4]                             39.2616591916229 	(obj:0)
r[0,1,4]                             68.1994857094907 	(obj:0)
r[0,0,5]                             31.2519729218734 	(obj:0)
r[0,1,5]                             61.5422803726711 	(obj:0)
r[0,0,6]                             23.5909711657404 	(obj:0)
r[0,1,6]                              55.333770675553 	(obj:0)
r[0,0,7]                             16.2676741133393 	(obj:0)
r[0,1,7]                             49.5437145320208 	(obj:0)
r[0,0,8]                             10.6150320504161 	(obj:0)
r[0,1,8]                             44.1439081725626 	(obj:0)
r[0,0,9]                             6.46264454155111 	(obj:0)
r[0,1,9]                             39.1080487617318 	(obj:0)
r[0,0,10]                            3.39070301572141 	(obj:0)
r[0,1,10]                            4.52093735429521 	(obj:0)
r[1,0,0]                                           75 	(obj:0)
r[1,1,0]                                          100 	(obj:0)
r[1,0,1]                                     65.48994 	(obj:0)
r[1,1,1]                                     91.19944 	(obj:0)
r[1,0,2]                                56.3701901292 	(obj:0)
r[1,1,2]                                 82.992037744 	(obj:0)
r[1,0,3]                             47.6308622333113 	(obj:0)
r[1,1,3]                             75.3378144000544 	(obj:0)
r[1,0,4]                             39.2616591916229 	(obj:0)
r[1,1,4]                             68.1994857094907 	(obj:0)
r[1,0,5]                             31.2519729218734 	(obj:0)
r[1,1,5]                             61.5422803726711 	(obj:0)
r[1,0,6]                             23.5909711657404 	(obj:0)
r[1,1,6]                              55.333770675553 	(obj:0)
r[1,0,7]                             16.2676741133393 	(obj:0)
r[1,1,7]                             49.5437145320208 	(obj:0)
r[1,0,8]                             10.6150320504161 	(obj:0)
r[1,1,8]                             44.1439081725626 	(obj:0)
r[1,0,9]                             6.46264454155111 	(obj:0)
r[1,1,9]                             39.1080487617318 	(obj:0)
r[1,0,10]                            3.39070301572141 	(obj:0)
r[1,1,10]                            4.52093735429521 	(obj:0)
r[2,0,0]                                           75 	(obj:0)
r[2,1,0]                                          100 	(obj:0)
r[2,0,1]                                     65.48994 	(obj:0)
r[2,1,1]                                     91.19944 	(obj:0)
r[2,0,2]                                56.3701901292 	(obj:0)
r[2,1,2]                                 82.992037744 	(obj:0)
r[2,0,3]                             47.6308622333113 	(obj:0)
r[2,1,3]                             75.3378144000544 	(obj:0)
r[2,0,4]                             39.2616591916229 	(obj:0)
r[2,1,4]                             68.1994857094907 	(obj:0)
r[2,0,5]                             31.2519729218734 	(obj:0)
r[2,1,5]                             61.5422803726711 	(obj:0)
r[2,0,6]                             23.5909711657404 	(obj:0)
r[2,1,6]                              55.333770675553 	(obj:0)
r[2,0,7]                             16.2676741133393 	(obj:0)
r[2,1,7]                             49.5437145320208 	(obj:0)
r[2,0,8]                             10.6150320504161 	(obj:0)
r[2,1,8]                             44.1439081725626 	(obj:0)
r[2,0,9]                             6.46264454155111 	(obj:0)
r[2,1,9]                             39.1080487617318 	(obj:0)
r[2,0,10]                            3.39070301572141 	(obj:0)
r[2,1,10]                            4.52093735429521 	(obj:0)
r[3,0,0]                                           75 	(obj:0)
r[3,1,0]                                          100 	(obj:0)
r[3,0,1]                                     65.48994 	(obj:0)
r[3,1,1]                                     91.19944 	(obj:0)
r[3,0,2]                                56.3701901292 	(obj:0)
r[3,1,2]                                 82.992037744 	(obj:0)
r[3,0,3]                             47.6308622333113 	(obj:0)
r[3,1,3]                             75.3378144000544 	(obj:0)
r[3,0,4]                             39.2616591916229 	(obj:0)
r[3,1,4]                             68.1994857094907 	(obj:0)
r[3,0,5]                             31.2519729218734 	(obj:0)
r[3,1,5]                             61.5422803726711 	(obj:0)
r[3,0,6]                             23.5909711657404 	(obj:0)
r[3,1,6]                              55.333770675553 	(obj:0)
r[3,0,7]                             16.2676741133393 	(obj:0)
r[3,1,7]                             49.5437145320208 	(obj:0)
r[3,0,8]                             10.6150320504161 	(obj:0)
r[3,1,8]                             44.1439081725626 	(obj:0)
r[3,0,9]                             6.46264454155111 	(obj:0)
r[3,1,9]                             39.1080487617318 	(obj:0)
r[3,0,10]                            3.39070301572141 	(obj:0)
r[3,1,10]                            4.52093735429521 	(obj:0)
r[4,0,0]                                           75 	(obj:0)
r[4,1,0]                                          100 	(obj:0)
r[4,0,1]                                     65.48994 	(obj:0)
r[4,1,1]                                     91.19944 	(obj:0)
r[4,0,2]                                56.3701901292 	(obj:0)
r[4,1,2]                                 82.992037744 	(obj:0)
r[4,0,3]                             47.6308622333113 	(obj:0)
r[4,1,3]                             75.3378144000544 	(obj:0)
r[4,0,4]                             39.2616591916229 	(obj:0)
r[4,1,4]                             68.1994857094907 	(obj:0)
r[4,0,5]                             31.3888447646741 	(obj:0)
r[4,1,5]                             61.5422803726711 	(obj:0)
r[4,0,6]                             28.3164379028376 	(obj:0)
r[4,1,6]                              55.333770675553 	(obj:0)
r[4,0,7]                             22.3982018458199 	(obj:0)
r[4,1,7]                             49.5437145320208 	(obj:0)
r[4,0,8]                                           15 	(obj:0)
r[4,1,8]                             44.1439081725626 	(obj:0)
r[4,0,9]                             9.59907010847332 	(obj:0)
r[4,1,9]                             39.1080487617318 	(obj:0)
r[4,0,10]                            5.63408665043574 	(obj:0)
r[4,1,10]                            7.51211553391432 	(obj:0)
r[5,0,0]                                           75 	(obj:0)
r[5,1,0]                                          100 	(obj:0)
r[5,0,1]                                     65.48994 	(obj:0)
r[5,1,1]                                     91.19944 	(obj:0)
r[5,0,2]                                60.1925801292 	(obj:0)
r[5,1,2]                                 82.992037744 	(obj:0)
r[5,0,3]                             51.2028856883113 	(obj:0)
r[5,1,3]                             75.3378144000544 	(obj:0)
r[5,0,4]                             46.7737346930374 	(obj:0)
r[5,1,4]                             68.1994857094907 	(obj:0)
r[5,0,5]                             38.2720074779453 	(obj:0)
r[5,1,5]                             61.5422803726711 	(obj:0)
r[5,0,6]                             30.1511934583895 	(obj:0)
r[5,1,6]                              55.333770675553 	(obj:0)
r[5,0,7]                             22.3982018458199 	(obj:0)
r[5,1,7]                             49.5437145320208 	(obj:0)
r[5,0,8]                                           15 	(obj:0)
r[5,1,8]                             44.1439081725626 	(obj:0)
r[5,0,9]                             9.59907010847332 	(obj:0)
r[5,1,9]                             39.1080487617318 	(obj:0)
r[5,0,10]                            5.63408665043574 	(obj:0)
r[5,1,10]                            7.51211553391432 	(obj:0)
r[6,0,0]                                           75 	(obj:0)
r[6,1,0]                                          100 	(obj:0)
r[6,0,1]                                     65.48994 	(obj:0)
r[6,1,1]                                     91.19944 	(obj:0)
r[6,0,2]                                56.3701901292 	(obj:0)
r[6,1,2]                                 82.992037744 	(obj:0)
r[6,0,3]                             47.6308622333113 	(obj:0)
r[6,1,3]                             75.3378144000544 	(obj:0)
r[6,0,4]                             39.2616591916229 	(obj:0)
r[6,1,4]                             68.1994857094907 	(obj:0)
r[6,0,5]                             35.8495329218734 	(obj:0)
r[6,1,5]                             61.5422803726711 	(obj:0)
r[6,0,6]                             28.3952609857404 	(obj:0)
r[6,1,6]                              55.333770675553 	(obj:0)
r[6,0,7]                              22.303763883466 	(obj:0)
r[6,1,7]                             49.5437145320208 	(obj:0)
r[6,0,8]                             14.9324515839066 	(obj:0)
r[6,1,8]                             44.1439081725626 	(obj:0)
